BAYES
8
2 2 2 2 2 2 2 2
8
1 0
1 1
2 1 2
2 1 3
2 0 4
3 3 4 5
3 2 5 6
2 5 7
2
 0.01 0.99
2
 0.5 0.5
4
 0.6 0.4 0.3 0.7
4
 0.1 0.9 0.01 0.99
4
 0.05 0.95 0.01 0.99
8
 1.0 0.0 1.0 0.0 1.0 0.0 0.0 1.0
8
 0.9 0.1 0.8 0.2 0.7 0.3 0.1 0.9
4
 0.98 0.02 0.05 0.95

